NAME          COPTPROB
OBJSENSE
  MIN
ROWS
 N  __OBJ___
 L  C0      
 L  C1      
 L  C3      
 L  C4      
 L  C10     
 L  C11     
 L  C13     
 L  C20     
 L  C22     
 L  C23     
 L  C25     
 L  C27     
 L  C28     
 L  C29     
 L  C31     
 L  C32     
 L  C33     
 L  C36     
 L  C37     
 L  C38     
 L  C39     
 L  C42     
 L  C49     
 L  C51     
 L  C52     
 L  C54     
 L  C57     
 L  C62     
 L  C64     
 L  C65     
 L  C66     
 L  C69     
 L  C70     
 L  C72     
 L  C73     
 L  C74     
 L  C77     
 L  C78     
 L  C79     
 L  C80     
 L  C82     
 L  C83     
 L  C85     
 L  C88     
 L  C92     
 L  C93     
 L  C95     
 L  C97     
 L  C99     
 L  C100    
 L  C104    
 L  C107    
 L  C110    
 L  C111    
 L  C113    
 L  C117    
 L  C119    
 L  C120    
 L  C122    
 L  C123    
 L  C124    
 L  C125    
 L  C126    
 L  C127    
 L  C131    
 L  C133    
 L  C135    
 L  C137    
 L  C138    
 L  C140    
 L  C142    
 L  C143    
 L  C145    
 L  C146    
 L  C149    
 L  C154    
 L  C155    
 L  C156    
 L  C158    
 L  C159    
 L  C160    
 L  C161    
 L  C165    
 L  C166    
 L  C167    
 L  C169    
 L  C176    
 L  C179    
 L  C180    
 L  C181    
 L  C184    
 L  C189    
 L  C191    
 L  C196    
 L  C198    
 L  C201    
 L  C204    
 L  C206    
 L  C207    
 L  C208    
 L  C211    
 L  C227    
 L  C229    
 L  C230    
 L  C231    
 L  C232    
 L  C234    
 L  C236    
 L  C237    
 L  C238    
 L  C239    
 L  C242    
 L  C244    
 L  C246    
 L  C247    
 L  C248    
 L  C249    
 L  C251    
 L  C253    
 L  C257    
 L  C261    
 L  C262    
 L  C263    
 L  C267    
 L  C269    
 L  C270    
 L  C275    
 L  C277    
 L  C280    
 L  C283    
 L  C284    
 L  C285    
 L  C286    
 L  C288    
 L  C289    
 L  C292    
 L  C293    
 L  C296    
 L  C297    
 L  C298    
 L  C301    
 L  C302    
 L  C305    
 L  C306    
 L  C307    
 L  C313    
 L  C314    
 L  C315    
 L  C316    
 L  C321    
 L  C322    
 L  C323    
 L  C324    
 L  C326    
 L  C327    
 L  C331    
 L  C332    
 L  C336    
 L  C338    
 L  C339    
 L  C341    
 L  C343    
 L  C348    
 L  C350    
 L  C352    
 L  C359    
 L  C363    
 L  C367    
 L  C368    
 L  C371    
 L  C373    
 L  C376    
 L  C381    
 L  C383    
 L  C385    
 L  C386    
 L  C387    
 L  C398    
COLUMNS
    MARKER    'MARKER'                 'INTORG'
    x2        __OBJ___  398
    x2        C23       -1
    x2        C62       -1
    x2        C316      -1
    x3        __OBJ___  366
    x3        C38       -1
    x3        C359      -1
    x9        __OBJ___  822
    x9        C113      -1
    x9        C314      -1
    x9        C341      -1
    x10       __OBJ___  943
    x10       C191      -1
    x10       C363      -1
    x10       C373      -1
    x12       __OBJ___  391
    x12       C42       -1
    x12       C244      -1
    x13       __OBJ___  685
    x13       C32       -1
    x13       C36       -1
    x13       C122      -1
    x13       C297      -1
    x14       __OBJ___  251
    x14       C292      -1
    x14       C385      -1
    x14       C398      -1
    x17       __OBJ___  923
    x17       C11       -1
    x17       C69       -1
    x17       C79       -1
    x17       C348      -1
    x18       __OBJ___  477
    x18       C77       -1
    x18       C124      -1
    x19       __OBJ___  676
    x19       C31       -1
    x19       C123      -1
    x19       C126      -1
    x19       C323      -1
    x22       __OBJ___  718
    x22       C1        -1
    x22       C25       -1
    x22       C65       -1
    x22       C283      -1
    x22       C371      -1
    x22       C387      -1
    x23       __OBJ___  944
    x23       C54       -1
    x23       C97       -1
    x23       C104      -1
    x23       C386      -1
    x25       __OBJ___  44
    x25       C78       -1
    x25       C284      -1
    x27       __OBJ___  542
    x27       C95       -1
    x27       C167      -1
    x27       C227      -1
    x27       C251      -1
    x28       __OBJ___  884
    x28       C131      -1
    x28       C236      -1
    x28       C263      -1
    x28       C307      -1
    x34       __OBJ___  17
    x34       C211      -1
    x34       C296      -1
    x34       C305      -1
    x35       __OBJ___  158
    x35       C80       -1
    x35       C234      -1
    x35       C253      -1
    x35       C257      -1
    x35       C367      -1
    x37       __OBJ___  630
    x37       C22       -1
    x37       C107      -1
    x37       C120      -1
    x38       __OBJ___  772
    x38       C137      -1
    x38       C156      -1
    x38       C313      -1
    x38       C343      -1
    x38       C376      -1
    x41       __OBJ___  924
    x41       C135      -1
    x41       C158      -1
    x41       C289      -1
    x41       C368      -1
    x42       __OBJ___  298
    x42       C64       -1
    x42       C93       -1
    x42       C332      -1
    x43       __OBJ___  291
    x43       C20       -1
    x43       C133      -1
    x43       C206      -1
    x44       __OBJ___  979
    x44       C238      -1
    x44       C248      -1
    x44       C267      -1
    x47       __OBJ___  820
    x47       C110      -1
    x47       C159      -1
    x47       C242      -1
    x47       C285      -1
    x50       __OBJ___  518
    x50       C125      -1
    x50       C146      -1
    x50       C166      -1
    x50       C208      -1
    x50       C288      -1
    x55       __OBJ___  486
    x55       C85       -1
    x55       C127      -1
    x55       C247      -1
    x55       C262      -1
    x55       C331      -1
    x58       __OBJ___  25
    x58       C13       -1
    x58       C29       -1
    x60       __OBJ___  590
    x60       C88       -1
    x60       C119      -1
    x60       C246      -1
    x60       C301      -1
    x60       C324      -1
    x60       C381      -1
    x62       __OBJ___  519
    x62       C52       -1
    x62       C352      -1
    x67       __OBJ___  272
    x67       C27       -1
    x67       C28       -1
    x67       C49       -1
    x77       __OBJ___  288
    x77       C66       -1
    x77       C100      -1
    x77       C176      -1
    x77       C275      -1
    x81       __OBJ___  698
    x81       C3        -1
    x81       C51       -1
    x81       C232      -1
    x83       __OBJ___  272
    x83       C196      -1
    x83       C298      -1
    x83       C383      -1
    x84       __OBJ___  420
    x84       C169      -1
    x84       C231      -1
    x84       C350      -1
    x87       __OBJ___  415
    x87       C10       -1
    x87       C181      -1
    x87       C189      -1
    x87       C201      -1
    x89       __OBJ___  686
    x89       C37       -1
    x89       C270      -1
    x89       C280      -1
    x89       C315      -1
    x90       __OBJ___  138
    x90       C179      -1
    x90       C207      -1
    x92       __OBJ___  712
    x92       C73       -1
    x92       C154      -1
    x92       C249      -1
    x92       C302      -1
    x94       __OBJ___  463
    x94       C39       -1
    x94       C143      -1
    x94       C204      -1
    x94       C321      -1
    x94       C326      -1
    x95       __OBJ___  185
    x95       C0        -1
    x95       C293      -1
    x96       __OBJ___  825
    x96       C72       -1
    x96       C165      -1
    x97       __OBJ___  337
    x97       C83       -1
    x97       C286      -1
    x97       C327      -1
    x97       C339      -1
    x98       __OBJ___  934
    x98       C4        -1
    x98       C145      -1
    x98       C336      -1
    x99       __OBJ___  666
    x99       C82       -1
    x99       C140      -1
    x99       C160      -1
    x102      __OBJ___  744
    x102      C156      -1
    x102      C208      -1
    x102      C288      -1
    x102      C302      -1
    x104      __OBJ___  405
    x104      C73       -1
    x104      C156      -1
    x104      C179      -1
    x104      C280      -1
    x105      __OBJ___  536
    x105      C119      -1
    x105      C167      -1
    x105      C236      -1
    x105      C249      -1
    x105      C339      -1
    x107      __OBJ___  471
    x107      C10       -1
    x107      C82       -1
    x107      C275      -1
    x107      C280      -1
    x108      __OBJ___  176
    x108      C52       -1
    x108      C99       -1
    x108      C323      -1
    x108      C331      -1
    x111      __OBJ___  342
    x111      C126      -1
    x111      C237      -1
    x113      __OBJ___  48
    x113      C247      -1
    x114      __OBJ___  564
    x114      C39       -1
    x114      C95       -1
    x114      C237      -1
    x114      C316      -1
    x115      __OBJ___  959
    x115      C124      -1
    x115      C149      -1
    x115      C387      -1
    x116      __OBJ___  2
    x116      C296      -1
    x116      C383      -1
    x119      __OBJ___  459
    x119      C143      -1
    x119      C160      -1
    x119      C336      -1
    x121      __OBJ___  609
    x121      C137      -1
    x121      C248      -1
    x122      __OBJ___  345
    x122      C324      -1
    x122      C386      -1
    x123      __OBJ___  360
    x123      C20       -1
    x123      C111      -1
    x123      C324      -1
    x123      C383      -1
    x126      __OBJ___  486
    x126      C20       -1
    x126      C88       -1
    x126      C110      -1
    x130      __OBJ___  289
    x130      C165      -1
    x130      C249      -1
    x130      C284      -1
    x134      __OBJ___  191
    x134      C85       -1
    x134      C381      -1
    x137      __OBJ___  548
    x137      C57       -1
    x137      C66       -1
    x137      C138      -1
    x138      __OBJ___  162
    x138      C11       -1
    x138      C184      -1
    x139      __OBJ___  669
    x139      C37       -1
    x139      C181      -1
    x140      __OBJ___  372
    x140      C85       -1
    x140      C239      -1
    x140      C367      -1
    x142      __OBJ___  210
    x142      C127      -1
    x142      C321      -1
    x143      __OBJ___  29
    x143      C74       -1
    x148      __OBJ___  38
    x148      C28       -1
    x148      C38       -1
    x148      C133      -1
    x148      C257      -1
    x149      __OBJ___  91
    x149      C230      -1
    x152      __OBJ___  72
    x152      C229      -1
    x152      C277      -1
    x152      C283      -1
    x154      __OBJ___  642
    x154      C286      -1
    x154      C298      -1
    x154      C338      -1
    x155      __OBJ___  70
    x155      C64       -1
    x155      C117      -1
    x155      C326      -1
    x163      __OBJ___  143
    x163      C38       -1
    x163      C49       -1
    x166      __OBJ___  130
    x166      C179      -1
    x166      C257      -1
    x167      __OBJ___  180
    x167      C66       -1
    x167      C92       -1
    x167      C277      -1
    x170      __OBJ___  123
    x170      C126      -1
    x170      C284      -1
    x173      __OBJ___  134
    x173      C238      -1
    x173      C246      -1
    x173      C289      -1
    x176      __OBJ___  112
    x176      C161      -1
    x176      C180      -1
    x176      C230      -1
    x176      C263      -1
    x178      __OBJ___  64
    x178      C13       -1
    x178      C125      -1
    x178      C350      -1
    x181      __OBJ___  604
    x181      C29       -1
    x181      C123      -1
    x181      C169      -1
    x181      C180      -1
    x181      C191      -1
    x183      __OBJ___  856
    x183      C83       -1
    x183      C117      -1
    x183      C204      -1
    x183      C244      -1
    x183      C306      -1
    x185      __OBJ___  426
    x185      C137      -1
    x185      C201      -1
    x187      __OBJ___  4
    x187      C167      -1
    x187      C242      -1
    x189      __OBJ___  77
    x189      C65       -1
    x189      C262      -1
    x191      __OBJ___  185
    x191      C227      -1
    x191      C232      -1
    x191      C251      -1
    x191      C368      -1
    x192      __OBJ___  198
    x192      C70       -1
    x192      C206      -1
    x192      C249      -1
    x195      __OBJ___  333
    x195      C208      -1
    x195      C332      -1
    x195      C336      -1
    x195      C367      -1
    x196      __OBJ___  225
    x196      C97       -1
    x196      C305      -1
    x197      __OBJ___  851
    x197      C236      -1
    x197      C288      -1
    x201      __OBJ___  268
    x201      C180      -1
    x201      C246      -1
    x201      C322      -1
    x202      __OBJ___  330
    x202      C74       -1
    x202      C123      -1
    x202      C316      -1
    x203      __OBJ___  332
    x203      C79       -1
    x206      __OBJ___  276
    x206      C237      -1
    x206      C297      -1
    x207      __OBJ___  337
    x207      C160      -1
    x207      C247      -1
    x207      C321      -1
    x212      __OBJ___  503
    x212      C69       -1
    x212      C302      -1
    x213      __OBJ___  357
    x213      C32       -1
    x213      C336      -1
    x213      C341      -1
    x214      __OBJ___  442
    x214      C196      -1
    x214      C321      -1
    x216      __OBJ___  330
    x216      C111      -1
    x216      C196      -1
    x216      C359      -1
    x218      __OBJ___  79
    x218      C22       -1
    x218      C146      -1
    x218      C198      -1
    x219      __OBJ___  682
    x219      C159      -1
    x221      __OBJ___  717
    x221      C83       -1
    x221      C191      -1
    x221      C269      -1
    x222      __OBJ___  618
    x222      C158      -1
    x222      C257      -1
    x224      __OBJ___  62
    x224      C263      -1
    x224      C363      -1
    x225      __OBJ___  233
    x225      C204      -1
    x226      __OBJ___  122
    x226      C99       -1
    x226      C119      -1
    x227      __OBJ___  641
    x227      C28       -1
    x227      C72       -1
    x227      C79       -1
    x227      C286      -1
    x228      __OBJ___  677
    x228      C3        -1
    x228      C324      -1
    x228      C368      -1
    x231      __OBJ___  740
    x231      C23       -1
    x231      C124      -1
    x231      C146      -1
    x231      C343      -1
    x233      __OBJ___  213
    x233      C234      -1
    x233      C327      -1
    x234      __OBJ___  356
    x234      C51       -1
    x234      C286      -1
    x235      __OBJ___  662
    x235      C4        -1
    x235      C23       -1
    x235      C142      -1
    x238      __OBJ___  843
    x238      C32       -1
    x238      C138      -1
    x238      C371      -1
    x238      C373      -1
    x239      __OBJ___  728
    x239      C155      -1
    x239      C208      -1
    x239      C237      -1
    x239      C293      -1
    x240      __OBJ___  74
    x240      C113      -1
    x240      C306      -1
    x241      __OBJ___  329
    x241      C13       -1
    x241      C28       -1
    x241      C85       -1
    x241      C315      -1
    x242      __OBJ___  96
    x242      C70       -1
    x242      C324      -1
    x242      C343      -1
    x245      __OBJ___  205
    x245      C27       -1
    x245      C32       -1
    x245      C131      -1
    x247      __OBJ___  251
    x247      C176      -1
    x247      C229      -1
    x247      C239      -1
    x252      __OBJ___  86
    x252      C280      -1
    x254      __OBJ___  148
    x254      C143      -1
    x254      C230      -1
    x256      __OBJ___  391
    x256      C123      -1
    x256      C149      -1
    x256      C206      -1
    x256      C230      -1
    x256      C326      -1
    x257      __OBJ___  649
    x257      C77       -1
    x257      C113      -1
    x257      C125      -1
    x257      C133      -1
    x257      C169      -1
    x257      C363      -1
    x259      __OBJ___  829
    x259      C1        -1
    x259      C4        -1
    x259      C275      -1
    x264      __OBJ___  99
    x264      C39       -1
    x264      C126      -1
    x264      C249      -1
    x264      C253      -1
    x265      __OBJ___  334
    x265      C83       -1
    x265      C135      -1
    x266      __OBJ___  608
    x266      C387      -1
    x267      __OBJ___  8
    x267      C77       -1
    x271      __OBJ___  138
    x271      C52       -1
    x271      C161      -1
    x271      C261      -1
    x271      C275      -1
    x272      __OBJ___  314
    x272      C166      -1
    x272      C321      -1
    x273      __OBJ___  278
    x273      C104      -1
    x273      C206      -1
    x273      C398      -1
    x279      __OBJ___  796
    x279      C33       -1
    x279      C159      -1
    x279      C160      -1
    x282      __OBJ___  43
    x282      C277      -1
    x282      C381      -1
    x283      __OBJ___  309
    x283      C100      -1
    x283      C246      -1
    x284      __OBJ___  84
    x284      C251      -1
    x285      __OBJ___  637
    x285      C117      -1
    x285      C145      -1
    x285      C211      -1
    x286      __OBJ___  746
    x286      C20       -1
    x286      C31       -1
    x286      C302      -1
    x286      C373      -1
    x288      __OBJ___  585
    x288      C237      -1
    x288      C352      -1
    x289      __OBJ___  312
    x289      C31       -1
    x289      C283      -1
    x294      __OBJ___  195
    x294      C0        -1
    x294      C155      -1
    x294      C249      -1
    x295      __OBJ___  742
    x295      C78       -1
    x295      C92       -1
    x295      C248      -1
    x295      C292      -1
    x296      __OBJ___  29
    x296      C339      -1
    x299      __OBJ___  97
    x299      C143      -1
    x299      C231      -1
    x299      C341      -1
    x301      __OBJ___  575
    x301      C149      -1
    x301      C201      -1
    x302      __OBJ___  715
    x302      C31       -1
    x302      C95       -1
    x302      C206      -1
    x302      C324      -1
    x305      __OBJ___  620
    x305      C270      -1
    x305      C298      -1
    x310      __OBJ___  477
    x310      C124      -1
    x310      C196      -1
    x312      __OBJ___  27
    x312      C33       -1
    x312      C348      -1
    x315      __OBJ___  640
    x315      C62       -1
    x315      C154      -1
    x315      C293      -1
    x317      __OBJ___  453
    x317      C4        -1
    x317      C122      -1
    x318      __OBJ___  120
    x318      C25       -1
    x318      C42       -1
    x323      __OBJ___  301
    x323      C95       -1
    x323      C140      -1
    x324      __OBJ___  110
    x324      C36       -1
    x324      C137      -1
    x325      __OBJ___  215
    x325      C100      -1
    x325      C138      -1
    x325      C285      -1
    x328      __OBJ___  956
    x328      C246      -1
    x328      C314      -1
    x328      C332      -1
    x328      C376      -1
    x329      __OBJ___  185
    x329      C292      -1
    x329      C350      -1
    x330      __OBJ___  179
    x330      C142      -1
    x330      C181      -1
    x330      C227      -1
    x331      __OBJ___  825
    x331      C236      -1
    x331      C267      -1
    x332      __OBJ___  913
    x332      C20       -1
    x332      C269      -1
    x332      C305      -1
    x332      C338      -1
    x333      __OBJ___  382
    x333      C74       -1
    x333      C244      -1
    x333      C257      -1
    x336      __OBJ___  598
    x336      C54       -1
    x336      C80       -1
    x336      C189      -1
    x341      __OBJ___  942
    x341      C79       -1
    x341      C165      -1
    x341      C232      -1
    x341      C323      -1
    x343      __OBJ___  105
    x343      C62       -1
    x343      C261      -1
    x344      __OBJ___  258
    x344      C123      -1
    x344      C160      -1
    x344      C198      -1
    x344      C322      -1
    x345      __OBJ___  329
    x345      C0        -1
    x345      C73       -1
    x345      C104      -1
    x345      C371      -1
    x351      __OBJ___  257
    x351      C100      -1
    x351      C131      -1
    x356      __OBJ___  866
    x356      C32       -1
    x356      C82       -1
    x356      C93       -1
    x357      __OBJ___  398
    x357      C176      -1
    x357      C196      -1
    x357      C204      -1
    x357      C247      -1
    x357      C257      -1
    x358      __OBJ___  228
    x358      C307      -1
    x358      C385      -1
    x364      __OBJ___  167
    x364      C232      -1
    x364      C286      -1
    x364      C363      -1
    x365      __OBJ___  221
    x365      C54       -1
    x365      C313      -1
    x365      C315      -1
    x365      C368      -1
    x371      __OBJ___  373
    x371      C126      -1
    x371      C301      -1
    x372      __OBJ___  350
    x372      C107      -1
    x372      C119      -1
    x380      __OBJ___  148
    x380      C54       -1
    x380      C160      -1
    x380      C184      -1
    x381      __OBJ___  573
    x381      C73       -1
    x381      C120      -1
    x382      __OBJ___  357
    x382      C92       -1
    x382      C196      -1
    x382      C207      -1
    x382      C247      -1
    x382      C292      -1
    x383      __OBJ___  192
    x383      C52       -1
    x383      C251      -1
    x383      C371      -1
    x385      __OBJ___  841
    x385      C10       -1
    x385      C93       -1
    x385      C236      -1
    x386      __OBJ___  541
    x386      C39       -1
    x386      C288      -1
    x386      C398      -1
    x388      __OBJ___  447
    x388      C22       -1
    x388      C23       -1
    x388      C57       -1
    x395      __OBJ___  576
    x395      C33       -1
    x395      C124      -1
    x395      C160      -1
    x395      C239      -1
    x395      C321      -1
    MARKER    'MARKER'                 'INTEND'
RHS
    RHS       __OBJ___  -17733
    RHS       C0        -1
    RHS       C1        -1
    RHS       C3        -1
    RHS       C4        -1
    RHS       C10       -1
    RHS       C11       -1
    RHS       C13       -1
    RHS       C20       -1
    RHS       C22       -1
    RHS       C23       -1
    RHS       C25       -1
    RHS       C27       -1
    RHS       C28       -1
    RHS       C29       -1
    RHS       C31       -1
    RHS       C32       -1
    RHS       C33       -1
    RHS       C36       -1
    RHS       C37       -1
    RHS       C38       -1
    RHS       C39       -1
    RHS       C42       -1
    RHS       C49       -1
    RHS       C51       -1
    RHS       C52       -1
    RHS       C54       -1
    RHS       C57       -1
    RHS       C62       -1
    RHS       C64       -1
    RHS       C65       -1
    RHS       C66       -1
    RHS       C69       -1
    RHS       C70       -1
    RHS       C72       -1
    RHS       C73       -1
    RHS       C74       -1
    RHS       C77       -1
    RHS       C78       -1
    RHS       C79       -1
    RHS       C80       -1
    RHS       C82       -1
    RHS       C83       -1
    RHS       C85       -1
    RHS       C88       -1
    RHS       C92       -1
    RHS       C93       -1
    RHS       C95       -1
    RHS       C97       -1
    RHS       C99       -1
    RHS       C100      -1
    RHS       C104      -1
    RHS       C107      -1
    RHS       C110      -1
    RHS       C111      -1
    RHS       C113      -1
    RHS       C117      -1
    RHS       C119      -1
    RHS       C120      -1
    RHS       C122      -1
    RHS       C123      -1
    RHS       C124      -1
    RHS       C125      -1
    RHS       C126      -1
    RHS       C127      -1
    RHS       C131      -1
    RHS       C133      -1
    RHS       C135      -1
    RHS       C137      -1
    RHS       C138      -1
    RHS       C140      -1
    RHS       C142      -1
    RHS       C143      -1
    RHS       C145      -1
    RHS       C146      -1
    RHS       C149      -1
    RHS       C154      -1
    RHS       C155      -1
    RHS       C156      -1
    RHS       C158      -1
    RHS       C159      -1
    RHS       C160      -1
    RHS       C161      -1
    RHS       C165      -1
    RHS       C166      -1
    RHS       C167      -1
    RHS       C169      -1
    RHS       C176      -1
    RHS       C179      -1
    RHS       C180      -1
    RHS       C181      -1
    RHS       C184      -1
    RHS       C189      -1
    RHS       C191      -1
    RHS       C196      -1
    RHS       C198      -1
    RHS       C201      -1
    RHS       C204      -1
    RHS       C206      -1
    RHS       C207      -1
    RHS       C208      -1
    RHS       C211      -1
    RHS       C227      -1
    RHS       C229      -1
    RHS       C230      -1
    RHS       C231      -1
    RHS       C232      -1
    RHS       C234      -1
    RHS       C236      -1
    RHS       C237      -1
    RHS       C238      -1
    RHS       C239      -1
    RHS       C242      -1
    RHS       C244      -1
    RHS       C246      -1
    RHS       C247      -1
    RHS       C248      -1
    RHS       C249      -1
    RHS       C251      -1
    RHS       C253      -1
    RHS       C257      -1
    RHS       C261      -1
    RHS       C262      -1
    RHS       C263      -1
    RHS       C267      -1
    RHS       C269      -1
    RHS       C270      -1
    RHS       C275      -1
    RHS       C277      -1
    RHS       C280      -1
    RHS       C283      -1
    RHS       C284      -1
    RHS       C285      -1
    RHS       C286      -1
    RHS       C288      -1
    RHS       C289      -1
    RHS       C292      -1
    RHS       C293      -1
    RHS       C296      -1
    RHS       C297      -1
    RHS       C298      -1
    RHS       C301      -1
    RHS       C302      -1
    RHS       C305      -1
    RHS       C306      -1
    RHS       C307      -1
    RHS       C313      -1
    RHS       C314      -1
    RHS       C315      -1
    RHS       C316      -1
    RHS       C321      -1
    RHS       C322      -1
    RHS       C323      -1
    RHS       C324      -1
    RHS       C326      -1
    RHS       C327      -1
    RHS       C331      -1
    RHS       C332      -1
    RHS       C336      -1
    RHS       C338      -1
    RHS       C339      -1
    RHS       C341      -1
    RHS       C343      -1
    RHS       C348      -1
    RHS       C350      -1
    RHS       C352      -1
    RHS       C359      -1
    RHS       C363      -1
    RHS       C367      -1
    RHS       C368      -1
    RHS       C371      -1
    RHS       C373      -1
    RHS       C376      -1
    RHS       C381      -1
    RHS       C383      -1
    RHS       C385      -1
    RHS       C386      -1
    RHS       C387      -1
    RHS       C398      -1
BOUNDS
 UP BOUND     x2        1
 UP BOUND     x3        1
 UP BOUND     x9        1
 UP BOUND     x10       1
 UP BOUND     x12       1
 UP BOUND     x13       1
 UP BOUND     x14       1
 UP BOUND     x17       1
 UP BOUND     x18       1
 UP BOUND     x19       1
 UP BOUND     x22       1
 UP BOUND     x23       1
 UP BOUND     x25       1
 UP BOUND     x27       1
 UP BOUND     x28       1
 UP BOUND     x34       1
 UP BOUND     x35       1
 UP BOUND     x37       1
 UP BOUND     x38       1
 UP BOUND     x41       1
 UP BOUND     x42       1
 UP BOUND     x43       1
 UP BOUND     x44       1
 UP BOUND     x47       1
 UP BOUND     x50       1
 UP BOUND     x55       1
 UP BOUND     x58       1
 UP BOUND     x60       1
 UP BOUND     x62       1
 UP BOUND     x67       1
 UP BOUND     x77       1
 UP BOUND     x81       1
 UP BOUND     x83       1
 UP BOUND     x84       1
 UP BOUND     x87       1
 UP BOUND     x89       1
 UP BOUND     x90       1
 UP BOUND     x92       1
 UP BOUND     x94       1
 UP BOUND     x95       1
 UP BOUND     x96       1
 UP BOUND     x97       1
 UP BOUND     x98       1
 UP BOUND     x99       1
 UP BOUND     x102      1
 UP BOUND     x104      1
 UP BOUND     x105      1
 UP BOUND     x107      1
 UP BOUND     x108      1
 UP BOUND     x111      1
 UP BOUND     x113      1
 UP BOUND     x114      1
 UP BOUND     x115      1
 UP BOUND     x116      1
 UP BOUND     x119      1
 UP BOUND     x121      1
 UP BOUND     x122      1
 UP BOUND     x123      1
 UP BOUND     x126      1
 UP BOUND     x130      1
 UP BOUND     x134      1
 UP BOUND     x137      1
 UP BOUND     x138      1
 UP BOUND     x139      1
 UP BOUND     x140      1
 UP BOUND     x142      1
 UP BOUND     x143      1
 UP BOUND     x148      1
 UP BOUND     x149      1
 UP BOUND     x152      1
 UP BOUND     x154      1
 UP BOUND     x155      1
 UP BOUND     x163      1
 UP BOUND     x166      1
 UP BOUND     x167      1
 UP BOUND     x170      1
 UP BOUND     x173      1
 UP BOUND     x176      1
 UP BOUND     x178      1
 UP BOUND     x181      1
 UP BOUND     x183      1
 UP BOUND     x185      1
 UP BOUND     x187      1
 UP BOUND     x189      1
 UP BOUND     x191      1
 UP BOUND     x192      1
 UP BOUND     x195      1
 UP BOUND     x196      1
 UP BOUND     x197      1
 UP BOUND     x201      1
 UP BOUND     x202      1
 UP BOUND     x203      1
 UP BOUND     x206      1
 UP BOUND     x207      1
 UP BOUND     x212      1
 UP BOUND     x213      1
 UP BOUND     x214      1
 UP BOUND     x216      1
 UP BOUND     x218      1
 UP BOUND     x219      1
 UP BOUND     x221      1
 UP BOUND     x222      1
 UP BOUND     x224      1
 UP BOUND     x225      1
 UP BOUND     x226      1
 UP BOUND     x227      1
 UP BOUND     x228      1
 UP BOUND     x231      1
 UP BOUND     x233      1
 UP BOUND     x234      1
 UP BOUND     x235      1
 UP BOUND     x238      1
 UP BOUND     x239      1
 UP BOUND     x240      1
 UP BOUND     x241      1
 UP BOUND     x242      1
 UP BOUND     x245      1
 UP BOUND     x247      1
 UP BOUND     x252      1
 UP BOUND     x254      1
 UP BOUND     x256      1
 UP BOUND     x257      1
 UP BOUND     x259      1
 UP BOUND     x264      1
 UP BOUND     x265      1
 UP BOUND     x266      1
 UP BOUND     x267      1
 UP BOUND     x271      1
 UP BOUND     x272      1
 UP BOUND     x273      1
 UP BOUND     x279      1
 UP BOUND     x282      1
 UP BOUND     x283      1
 UP BOUND     x284      1
 UP BOUND     x285      1
 UP BOUND     x286      1
 UP BOUND     x288      1
 UP BOUND     x289      1
 UP BOUND     x294      1
 UP BOUND     x295      1
 UP BOUND     x296      1
 UP BOUND     x299      1
 UP BOUND     x301      1
 UP BOUND     x302      1
 UP BOUND     x305      1
 UP BOUND     x310      1
 UP BOUND     x312      1
 UP BOUND     x315      1
 UP BOUND     x317      1
 UP BOUND     x318      1
 UP BOUND     x323      1
 UP BOUND     x324      1
 UP BOUND     x325      1
 UP BOUND     x328      1
 UP BOUND     x329      1
 UP BOUND     x330      1
 UP BOUND     x331      1
 UP BOUND     x332      1
 UP BOUND     x333      1
 UP BOUND     x336      1
 UP BOUND     x341      1
 UP BOUND     x343      1
 UP BOUND     x344      1
 UP BOUND     x345      1
 UP BOUND     x351      1
 UP BOUND     x356      1
 UP BOUND     x357      1
 UP BOUND     x358      1
 UP BOUND     x364      1
 UP BOUND     x365      1
 UP BOUND     x371      1
 UP BOUND     x372      1
 UP BOUND     x380      1
 UP BOUND     x381      1
 UP BOUND     x382      1
 UP BOUND     x383      1
 UP BOUND     x385      1
 UP BOUND     x386      1
 UP BOUND     x388      1
 UP BOUND     x395      1
ENDATA
